61828
31 25 299
25 11 545
11 45 436
45 52 722
52 2 598
2 14 433
14 9 471
9 12 723
12 18 768
18 4 606
4 30 380
30 47 944
47 54 491
54 34 401
34 53 396
53 23 388
23 21 176
21 29 516
29 22 544
22 10 117
10 16 734
16 39 451
39 46 214
46 36 402
36 15 679
15 17 2537
17 48 415
48 49 761
49 26 560
26 55 397
55 28 487
28 6 404
6 3 385
3 43 1096
43 13 790
13 51 644
51 37 590
37 5 467
5 35 323
35 24 296
24 20 740
20 50 763
50 38 1180
38 8 368
8 44 383
44 32 676
32 41 362
41 19 1369
19 7 3022
7 40 1176
40 42 7902
42 33 4807
33 27 4053
27 1 4123
1 31 8318
